<number of tasks>
50

<cycle time>
1000

<order strength>
0.198


<task times>
1 196
2 59
3 187
4 30
5 108
6 218
7 154
8 83
9 291
10 160
11 106
12 167
13 136
14 47
15 45
16 233
17 167
18 75
19 112
20 116
21 47
22 85
23 25
24 67
25 29
26 35
27 95
28 155
29 148
30 179
31 138
32 39
33 49
34 27
35 201
36 134
37 51
38 60
39 75
40 155
41 42
42 129
43 181
44 102
45 138
46 74
47 121
48 176
49 282
50 67

<precedence relations>
1,22
2,5
2,9
2,10
2,12
3,4
3,6
3,7
3,8
3,11
4,22
5,22
6,14
6,15
6,16
6,17
7,28
8,13
8,18
8,50
10,20
11,13
11,19
11,21
13,22
14,24
15,25
16,23
17,26
18,29
19,27
20,28
21,49
22,30
22,31
22,32
22,33
22,34
23,35
24,36
25,38
27,37
29,49
30,41
33,43
33,44
34,42
35,41
36,40
37,39
37,44
39,45
40,46
41,48
43,47
44,49
45,49
46,50

<end>
